NAME : STSP_175-1over3
COMMENT : Length = 1272
COMMENT : Found by LKH-3 [Keld Helsgaun]
TYPE : TOUR
DIMENSION : 58
TOUR_SECTION
34
60
124
138
30
47
62
9
129
111
144
141
17
122
114
28
72
28
4
152
15
21
147
87
125
102
63
174
132
37
139
165
3
172
69
123
166
5
1
61
101
71
143
71
12
40
149
50
149
155
136
90
145
14
127
78
91
157
7
53
115
120
115
88
142
88
128
167
36
8
46
103
74
113
160
24
55
106
80
18
65
18
85
130
32
161
109
67
82
43
121
39
49
175
22
105
35
140
133
140
56
16
59
118
156
118
150
173
96
119
10
153
54
27
104
99
51
79
164
107
-1
EOF
